60 200
10 7
12 3
6 6
2 3
8 7
6 2
9 6
3 2
10 5
12 6
3 5
12 6
10 4
3 2
1 7
3 6
5 2
6 7
7 6
1 2
12 3
4 2
12 2
14 5
8 3
10 2
1 2
6 7
5 1
9 3
1 4
4 2
5 7
12 7
6 4
13 1
1 4
14 7
2 3
3 7
7 4
12 3
12 6
8 2
5 7
13 2
11 6
4 5
12 4
10 6
11 2
1 2
6 6
1 7
5 5
5 1
14 6
4 5
3 4
10 2
